presolving:
(round 1, fast)       178713 del vars, 178821 del conss, 0 add conss, 2880 chg bounds, 126 chg sides, 0 chg coeffs, 0 upgd conss, 0 impls, 10625 clqs
   (1.4s) running MILP presolver
   (1.5s) MILP presolver found nothing
(round 2, exhaustive) 178713 del vars, 178821 del conss, 0 add conss, 2880 chg bounds, 126 chg sides, 0 chg coeffs, 10625 upgd conss, 0 impls, 10625 clqs
   (1.6s) probing: 51/2925 (1.7%) - 0 fixings, 0 aggregations, 0 implications, 0 bound changes
   (1.6s) probing aborted: 50/50 successive totally useless probings
   (1.6s) symmetry computation started: requiring (bin +, int -, cont +), (fixed: bin -, int +, cont -)
   (1.6s) no symmetry present
presolving (3 rounds: 3 fast, 2 medium, 2 exhaustive):
 178758 deleted vars, 183758 deleted constraints, 0 added constraints, 2880 tightened bounds, 0 added holes, 126 changed sides, 0 changed coefficients
 0 implications, 5688 cliques
presolved problem has 2880 variables (2880 bin, 0 int, 0 impl, 0 cont) and 5688 constraints
   5688 constraints of type <setppc>
Presolving Time: 1.10

 time | node  | left  |LP iter|LP it/n|mem/heur|mdpt |vars |cons |rows |cuts |sepa|confs|strbr|  dualbound   | primalbound  |  gap   | compl. 
p 1.8s|     1 |     0 |     0 |     - |  clique|   0 |2880 |5688 |5688 |   0 |  0 |   0 |   0 | 3.430000e+02 |-4.768108e+04 |    Inf | unknown
p 1.8s|     1 |     0 |   116 |     - | vbounds|   0 |2880 |5712 |5688 |   0 |  0 |  24 |   0 | 3.430000e+02 |-4.370474e+04 |    Inf | unknown
  1.9s|     1 |     0 |   843 |     - |   585M |   0 |2880 |5712 |5688 |   0 |  0 |  24 |   0 |-3.234068e+04 |-4.370474e+04 |  35.14%| unknown
r 1.9s|     1 |     0 |   843 |     - |rounding|   0 |2880 |5712 |5688 |   0 |  0 |  24 |   0 |-3.234068e+04 |-4.066413e+04 |  25.74%| unknown
i 1.9s|     1 |     0 |   843 |     - |  oneopt|   0 |2880 |5712 |5688 |   0 |  0 |  24 |   0 |-3.234068e+04 |-3.620613e+04 |  11.95%| unknown
  3.0s|     1 |     0 |   953 |     - |   589M |   0 |2880 |5712 |5692 |   4 |  1 |  24 |   0 |-3.240535e+04 |-3.620613e+04 |  11.73%| unknown
  3.9s|     1 |     0 |  1082 |     - |   594M |   0 |2880 |5712 |5697 |   9 |  2 |  24 |   0 |-3.246380e+04 |-3.620613e+04 |  11.53%| unknown
  5.1s|     1 |     0 |  1246 |     - |   597M |   0 |2880 |5712 |5704 |  16 |  3 |  24 |   0 |-3.252113e+04 |-3.620613e+04 |  11.33%| unknown
  5.3s|     1 |     0 |  1373 |     - |   598M |   0 |2880 |5712 |5711 |  23 |  4 |  24 |   0 |-3.257138e+04 |-3.620613e+04 |  11.16%| unknown
  5.5s|     1 |     0 |  1443 |     - |   599M |   0 |2880 |5712 |5717 |  29 |  5 |  24 |   0 |-3.258127e+04 |-3.620613e+04 |  11.13%| unknown
  7.3s|     1 |     0 |  1507 |     - |   602M |   0 |2880 |5712 |5722 |  34 |  6 |  24 |   0 |-3.258851e+04 |-3.620613e+04 |  11.10%| unknown
  7.5s|     1 |     0 |  1618 |     - |   603M |   0 |2880 |5712 |5730 |  42 |  7 |  24 |   0 |-3.260583e+04 |-3.620613e+04 |  11.04%| unknown
  7.8s|     1 |     0 |  1721 |     - |   603M |   0 |2880 |5712 |5735 |  47 |  8 |  24 |   0 |-3.264331e+04 |-3.620613e+04 |  10.91%| unknown
  8.1s|     1 |     0 |  1798 |     - |   604M |   0 |2880 |5712 |5741 |  53 |  9 |  24 |   0 |-3.265621e+04 |-3.620613e+04 |  10.87%| unknown
  8.3s|     1 |     0 |  1839 |     - |   605M |   0 |2880 |5712 |5745 |  57 | 10 |  24 |   0 |-3.265831e+04 |-3.620613e+04 |  10.86%| unknown
 time | node  | left  |LP iter|LP it/n|mem/heur|mdpt |vars |cons |rows |cuts |sepa|confs|strbr|  dualbound   | primalbound  |  gap   | compl. 
  8.3s|     1 |     0 |  1865 |     - |   605M |   0 |2880 |5712 |5747 |  59 | 11 |  24 |   0 |-3.265931e+04 |-3.620613e+04 |  10.86%| unknown
  8.4s|     1 |     0 |  1921 |     - |   606M |   0 |2880 |5712 |5752 |  64 | 12 |  24 |   0 |-3.266636e+04 |-3.620613e+04 |  10.84%| unknown
  8.4s|     1 |     0 |  1952 |     - |   606M |   0 |2880 |5712 |5754 |  66 | 13 |  24 |   0 |-3.266793e+04 |-3.620613e+04 |  10.83%| unknown
  8.5s|     1 |     0 |  1955 |     - |   607M |   0 |2880 |5712 |5755 |  67 | 14 |  24 |   0 |-3.266825e+04 |-3.620613e+04 |  10.83%| unknown
  8.5s|     1 |     0 |  2032 |     - |   608M |   0 |2880 |5712 |5759 |  71 | 15 |  24 |   0 |-3.267219e+04 |-3.620613e+04 |  10.82%| unknown
  8.6s|     1 |     0 |  2068 |     - |   608M |   0 |2880 |5712 |5762 |  74 | 16 |  24 |   0 |-3.267450e+04 |-3.620613e+04 |  10.81%| unknown
  8.6s|     1 |     0 |  2123 |     - |   609M |   0 |2880 |5712 |5765 |  77 | 17 |  24 |   0 |-3.267672e+04 |-3.620613e+04 |  10.80%| unknown
  8.7s|     1 |     0 |  2209 |     - |   610M |   0 |2880 |5712 |5768 |  80 | 18 |  24 |   0 |-3.268201e+04 |-3.620613e+04 |  10.78%| unknown
  8.7s|     1 |     0 |  2221 |     - |   610M |   0 |2880 |5712 |5769 |  81 | 19 |  24 |   0 |-3.268215e+04 |-3.620613e+04 |  10.78%| unknown
  8.8s|     1 |     0 |  2257 |     - |   611M |   0 |2880 |5712 |5772 |  84 | 20 |  24 |   0 |-3.268389e+04 |-3.620613e+04 |  10.78%| unknown
L12.0s|     1 |     0 | 18907 |     - |    rens|   0 |2880 |5712 |5772 |  84 | 22 |  24 |   0 |-3.268389e+04 |-3.328532e+04 |   1.84%| unknown
 12.0s|     1 |     0 | 18907 |     - |   612M |   0 |2880 |5712 |5772 |  84 | 22 |  24 |   0 |-3.268389e+04 |-3.328532e+04 |   1.84%| unknown
 12.0s|     1 |     0 | 18907 |     - |   612M |   0 |2880 |5712 |5685 |  84 | 22 |  24 |   0 |-3.268389e+04 |-3.328532e+04 |   1.84%| unknown
 12.1s|     1 |     0 | 18921 |     - |   612M |   0 |2880 |5625 |5686 |  85 | 23 |  24 |   0 |-3.268468e+04 |-3.328532e+04 |   1.84%| unknown
 12.1s|     1 |     0 | 18934 |     - |   612M |   0 |2880 |5625 |5686 |  88 | 24 |  24 |   0 |-3.268479e+04 |-3.328532e+04 |   1.84%| unknown
 time | node  | left  |LP iter|LP it/n|mem/heur|mdpt |vars |cons |rows |cuts |sepa|confs|strbr|  dualbound   | primalbound  |  gap   | compl. 
 13.5s|     1 |     2 | 18934 |     - |   612M |   0 |2880 |5625 |5686 |  88 | 24 |  24 |  19 |-3.272551e+04 |-3.328532e+04 |   1.71%| unknown
*32.1s|    14 |     5 | 21803 |1510.4 |strongbr|  10 |2880 |5651 |5679 | 114 |  1 |  50 | 409 |-3.279660e+04 |-3.294427e+04 |   0.45%|  10.46%

SCIP Status        : problem is solved [optimal solution found]
Solving Time (sec) : 35.85
Solving Nodes      : 31
Primal Bound       : -3.29442698601116e+04 (6 solutions)
Dual Bound         : -3.29442698601116e+04
Gap                : 0.00 %
Solve Status: optimal
Solve Time: 35.92 seconds
Objective Value: -32944.27
